============================[ Problem Statistics ]=============================
|                                                                             |
|  Number of variables:           729                                         |
|  Number of clauses:            4652                                         |
|  Parse time:                   0.00 s                                       |
|  Eliminated clauses:           0.00 Mb                                      |
|  Simplification time:          0.01 s                                       |
|                                                                             |
============================[ Search Statistics ]==============================
| Conflicts |          ORIGINAL         |          LEARNT          | Progress |
|           |    Vars  Clauses Literals |    Limit  Clauses Lit/Cl |          |
===============================================================================
|       100 |     180     1196     5777 |      438      100      7 | 70.645 % |
===============================================================================
restarts              : 2
conflicts             : 196            (14897 /sec)
decisions             : 243            (0.00 % random) (18469 /sec)
propagations          : 7672           (583112 /sec)
conflict literals     : 1140           (70.00 % deleted)
Memory used           : 5.40 MB
CPU time              : 0.013157 s

UNSATISFIABLE
